db/inputs/1433831301842628880598021432221402641.smt2
(set-logic QF_FP)
(declare-const x0 (_ FloatingPoint 11 53))
(declare-const x1 (_ FloatingPoint 11 53))
(declare-const x2 (_ FloatingPoint 11 53))
(declare-const x3 (_ FloatingPoint 11 53))
(declare-const x4 (_ FloatingPoint 11 53))
(declare-const x5 (_ FloatingPoint 11 53))
(assert (fp.leq (fp.add RNE (fp.div RNE (fp.add RNE x0 x4) (fp.sub RNE x3 x2)) (fp.sub RNE (fp.neg x1) (fp.add RNE x0 x5))) (fp.neg (fp.div RNE (fp.neg x2) (fp.add RNE x0 x0)))))
(check-sat)
