db/data/1433831301842628880598021432221402641.z3.out
sat
-------------------
133.847216349
